50, 865
32, 27
64, 54
32, 27
33, 28
13, 8
26, 16
33, 28
66, 56
14, 9
28, 18
42, 27
41, 36
36, 31
72, 62
36, 31
48, 43
96, 86
192, 172
47, 42
94, 84
188, 168
94, 84
30, 25
60, 50
31, 26
62, 52
31, 26
24, 19
48, 38
22, 17
44, 34
88, 68
44, 34
6, 1
12, 2
24, 4
12, 2
11, 6
22, 12
21, 16
8, 3
16, 6
32, 12
7, 2
7, 2
37, 32
74, 64
37, 32
8, 3
16, 6
